[Molden Format]
made by pyscf v[2.14.0]
[Atoms] (AU)
O   1   8     0.00952770599672     0.75170112960946     0.00000000000000
H   2   1    -1.44739308669160    -0.35756541426031     0.00000000000000
H   3   1     1.43786538069488    -0.39413571534915     0.00000000000000
[GTO]
1 0
 s    5 1.00
          2266.1767785  -0.0053893503921743
          340.87010191   -0.04023472138896
          77.363135167   -0.18008184205526
           21.47964494   -0.46828857657651
          6.6589433124   -0.44692617160187
 s    1 1.00
         0.80975975668                   1
 s    1 1.00
         0.25530772234                   1
 p    3 1.00
          17.721504317   0.062630248763161
           3.863550544    0.33331138482352
          1.0480920883    0.74148638308122
 p    1 1.00
         0.27641544411                   1
 d    1 1.00
                   1.2                   1

2 0
 s    3 1.00
             13.010701   0.033485484812989
             1.9622572    0.23472187088125
            0.44453796    0.81377028525955
 s    1 1.00
            0.12194962                   1
 p    1 1.00
                   0.8                   1

3 0
 s    3 1.00
             13.010701   0.033485484812989
             1.9622572    0.23472187088125
            0.44453796    0.81377028525955
 s    1 1.00
            0.12194962                   1
 p    1 1.00
                   0.8                   1

[5d]
[7f]
[9g]

[MO]
 Sym= A
 Ene=    -20.54790737
 Spin= Alpha
 Occup=    2.00000
   1      0.99036394423266
   2    -0.033126688765165
   3     0.010495866068608
   4    3.4322042311718e-05
   5    0.0027078734824604
   6    -1.2077334756136e-17
   7    -3.0897361453818e-06
   8    -0.00024377327887175
   9    -7.693350864939e-18
  10    0.00075616244468317
  11    -9.7204723945137e-18
  12    2.1095353510509e-17
  13    -0.00031329478584541
  14    7.943153205058e-06
  15    0.0016221302053511
  16    -0.001757029130748
  17     0.001881109135327
  18    0.0014560786116286
  19    8.0850836433963e-18
  20    0.0016221299458639
  21    -0.0017570290593521
  22    -0.0018435994254152
  23    0.0015032887200533
  24    -1.8833085235343e-18
 Sym= A
 Ene=    -1.313355878
 Spin= Alpha
 Occup=    2.00000
   1      0.27882431092842
   2      0.55237017871007
   3      0.29534191540514
   4    -0.0010545910756034
   5    -0.083203007069682
   6    -9.0516770466539e-17
   7    4.4377462163115e-05
   8    0.0035011638985021
   9    -5.6843880719329e-17
  10    -0.0040851620853096
  11    -6.180962847185e-17
  12    3.8537464865831e-17
  13    0.00040565842715707
  14    -1.0284577134457e-05
  15      0.19003612091316
  16    0.0063825049541329
  17     0.031891188574139
  18     0.016639605776755
  19    1.1736002476088e-17
  20      0.19003611144247
  21    0.0063825051962065
  22    -0.031459200604543
  23     0.017442563039581
  24    9.4259651955977e-17
 Sym= A
 Ene=   -0.6963723527
 Spin= Alpha
 Occup=    2.00000
   1    3.2499466690073e-09
   2    7.0987400234452e-09
   3    1.3349802483661e-08
   4      0.49000838143734
   5    -0.0062107834591856
   6    5.1675664808259e-17
   7      0.23052407172608
   8     -0.00292185929425
   9    1.0030069300151e-16
  10    3.1927213769863e-10
  11    -3.7128477098623e-17
  12    1.631244997912e-17
  13    -0.00065490352158265
  14    -0.025830572826324
  15     -0.32436557230456
  16    -0.086963245521593
  17    -0.021972699955898
  18    -0.030123078796938
  19    -9.9260708890291e-18
  20      0.32436556436534
  21     0.086963246742791
  22    -0.021202151059227
  23     0.030670314547373
  24    7.9287952009386e-17
 Sym= A
 Ene=    -0.567080973
 Spin= Alpha
 Occup=    2.00000
   1     0.095916737962228
   2      0.19933377388859
   3      0.32949094988917
   4    0.0069150019097991
   5      0.54556835581293
   6    4.8033885150856e-16
   7    0.0045733497873683
   8      0.36082057428175
   9    -1.2713658104065e-16
  10     0.012212360526156
  11    -1.8703507904291e-18
  12    2.7485712172338e-17
  13     0.013547437233271
  14    -0.00034347906420606
  15      -0.2043258224998
  16    -0.055138786137638
  17    -0.030461588885049
  18    0.0069366349705963
  19    1.050183313514e-16
  20     -0.20432583171351
  21    -0.055138792936814
  22     0.030627617268321
  23    0.0061623356456816
  24    9.8583999992462e-17
 Sym= A
 Ene=   -0.4974033274
 Spin= Alpha
 Occup=    2.00000
   1    2.0401611514116e-17
   2    7.6038574214579e-17
   3    -1.4171077460652e-16
   4    -1.2188289295715e-16
   5    -1.0709249961776e-16
   6      0.63297480771112
   7    3.4571956361988e-16
   8    -3.2666992833198e-16
   9      0.49751073184689
  10    1.6380662044711e-17
  11    -0.00023183067976853
  12    -0.018290557748787
  13    -3.3493730330756e-17
  14    -9.6132151537967e-17
  15    -3.2485356922131e-16
  16    1.0248851305686e-15
  17    2.520459533462e-16
  18    8.5832107016682e-17
  19     0.028566904286697
  20    1.9669306515589e-16
  21    -8.2560953517635e-16
  22    1.2597276965911e-16
  23    -1.0676493490562e-16
  24     0.028566903566757
 Sym= A
 Ene=    0.1743085272
 Spin= Alpha
 Occup=    0.00000
   1     0.086991602600163
   2     0.088938604651882
   3       1.0884028584329
   4    -0.002431602200683
   5     -0.19184505307747
   6    -1.4037587303132e-16
   7    -0.0047367758893656
   8     -0.37371513439633
   9    2.2895966974137e-16
  10    -0.012082463244975
  11    3.8970657978591e-18
  12    -2.1865417342635e-17
  13    -0.0024652556442723
  14    6.2503885993973e-05
  15    -0.068543364793847
  16      -0.8918835147789
  17    -0.015195890760777
  18    -0.011436006555934
  19    -6.5654656904673e-17
  20    -0.068543369689497
  21     -0.89188355100566
  22     0.014901155909878
  23    -0.011817482266511
  24    -7.0241927948592e-17
 Sym= A
 Ene=    0.2535838744
 Spin= Alpha
 Occup=    0.00000
   1    -1.7971748171705e-09
   2    -1.1905400265581e-09
   3    -3.8673071008513e-08
   4      0.28635978112904
   5    -0.0036295722906848
   6    4.3320387460518e-16
   7      0.65771434175169
   8    -0.0083364399601797
   9    -3.8351333444185e-16
  10    7.670626414635e-10
  11    -2.9455129234763e-17
  12    -4.5167805578938e-17
  13    -0.00045876301447861
  14    -0.018094417083295
  15     0.028898258205832
  16       1.4124836921067
  17     0.014556220279636
  18     0.010884025494904
  19    4.9822644119117e-17
  20    -0.028898260469754
  21      -1.4124836411661
  22     0.014275678736785
  23    -0.011249464815528
  24    1.2885543397586e-17
 Sym= A
 Ene=    0.7844289325
 Spin= Alpha
 Occup=    0.00000
   1    -1.2045687208168e-08
   2    -4.6682496934813e-08
   3    6.0209960353331e-08
   4     -0.27226501133585
   5    0.0034509611358112
   6    2.9691596041672e-16
   7      -0.4977205803107
   8    0.0063085445144471
   9    -5.432948885636e-16
  10    -9.1021840778899e-09
  11    8.9032150968169e-17
  12    1.4118895615916e-16
  13    -0.0027075138105498
  14     -0.10678939505941
  15     -0.96852702569451
  16      0.68325099197198
  17     0.054558900525068
  18      0.12051326893604
  19    2.3325821814259e-16
  20      0.96852721472106
  21     -0.68325114002649
  22     0.051486926327878
  23     -0.12185739502953
  24    1.6937725173233e-16
 Sym= A
 Ene=     0.859442309
 Spin= Alpha
 Occup=    0.00000
   1     -0.11509096245745
   2      -0.4131834914082
   3      0.41250442322236
   4    0.0042081745633473
   5      0.33200716828888
   6    -1.6740200467871e-15
   7    0.00068715455757425
   8     0.054207928091478
   9    1.7419136662654e-15
  10    -0.089482387622778
  11    -1.2025978589235e-17
  12    1.9038063649828e-16
  13     0.050885151656545
  14    -0.0012901185118033
  15      0.83338586194608
  16     -0.57668435278168
  17      -0.2383247006595
  18    -0.050816463773273
  19    3.3629446424915e-16
  20      0.83338564031733
  21     -0.57668422838907
  22      0.23696014579775
  23    -0.056840606594365
  24    4.0343048809243e-16
 Sym= A
 Ene=     1.185497575
 Spin= Alpha
 Occup=    0.00000
   1     -0.13377500115814
   2     -0.58416226273151
   3     0.061826047929354
   4    -0.010054661884311
   5      -0.7932734500303
   6    -6.2952352207504e-14
   7     0.014775318586384
   8       1.1657129249493
   9    6.6581883811612e-14
  10    -0.0024054789633621
  11    -1.2489334906941e-17
  12    3.2613309717403e-16
  13    0.0084263223190191
  14    -0.00021364200417703
  15      0.37009063747014
  16     0.021364278480475
  17     0.067145299962519
  18      0.14430679472832
  19    1.0775670946543e-15
  20      0.37009061129955
  21     0.021364224627306
  22    -0.063466156863681
  23      0.14596227366722
  24    1.5451330697976e-15
 Sym= A
 Ene=     1.201909061
 Spin= Alpha
 Occup=    0.00000
   1    9.4684487777582e-15
   2    4.2161592358836e-14
   3    -1.0516181846127e-14
   4    5.5009798817753e-15
   5    5.1131067073401e-14
   6     -0.96756248145962
   7    -1.3287818568006e-14
   8    -7.4396707191501e-14
   9        1.027470792186
  10    3.755179308139e-16
  11    4.4598501645563e-05
  12     0.003518578138806
  13    -5.2765742101064e-16
  14    4.7312661088091e-16
  15    -2.7745334012993e-14
  16    -4.2111553595266e-15
  17    -5.9520680694643e-15
  18    -1.0436184775196e-14
  19    0.0081096097473793
  20    -2.1276370589424e-14
  21    5.4361048152442e-15
  22    1.1191446521466e-15
  23    -7.9247914119889e-15
  24    0.0081096267607487
 Sym= A
 Ene=     1.270743857
 Spin= Alpha
 Occup=    0.00000
   1    1.174965897538e-08
   2    5.9510325132204e-08
   3    -1.0406608550362e-07
   4     -0.77269626709679
   5    0.0097938531303159
   6    -6.949351925227e-15
   7       1.7165033506611
   8    -0.021756478126834
   9    7.5263306380986e-15
  10    2.2799501717158e-09
  11    -3.18554980127e-16
  12    -8.9004343538919e-17
  13    -0.0010604141000981
  14    -0.041824635345161
  15      0.33691231362112
  16      0.78298702407394
  17      0.26311362852962
  18       0.1628358554527
  19    4.7256432666076e-16
  20     -0.33691230321697
  21     -0.78298698064438
  22       0.2589019205197
  23     -0.16945232290883
  24    -8.7176551051789e-16
 Sym= A
 Ene=     1.341641281
 Spin= Alpha
 Occup=    0.00000
   1     -0.24477305945037
   2      -1.5367683923759
   3       2.7565814403466
   4    0.0011837777456669
   5     0.093397920818796
   6    -1.6098553411995e-15
   7     -0.00787084622777
   8     -0.62098364048853
   9    1.5067023515994e-15
  10     0.017367786060747
  11    1.1904208639876e-17
  12    1.2694474437989e-16
  13    -0.058591048134965
  14    0.0014855070508652
  15     -0.52939197406527
  16     -0.49142784070288
  17    0.0086520270249784
  18     -0.32706510056434
  19    3.4634029241172e-16
  20     -0.52939198530283
  21     -0.49142785772067
  22    -0.016938916765461
  23      -0.3267407506776
  24    5.1981282003158e-16
 Sym= A
 Ene=     1.597184605
 Spin= Alpha
 Occup=    0.00000
   1    1.8956502296568e-16
   2    1.0317861091818e-15
   3    -1.4778772936033e-15
   4    -8.7316950186541e-16
   5    2.4087145392676e-16
   6    1.7377285310265e-08
   7    1.7993520323763e-15
   8    3.8116743902648e-16
   9    -1.4036850540034e-08
  10    -6.6414262622091e-17
  11      0.16600451160608
  12    -0.0021040888456064
  13    -7.8721228917685e-17
  14    1.0402806455438e-16
  15    6.5005052711462e-16
  16    1.4438555674611e-15
  17    9.5429926431928e-16
  18    -4.9413820991542e-16
  19     -0.66994600018194
  20    2.801570045505e-16
  21    -1.1299406153624e-15
  22    4.680741829918e-16
  23    -1.7112231066174e-16
  24      0.66994601409471
 Sym= A
 Ene=     1.659826579
 Spin= Alpha
 Occup=    0.00000
   1    -0.085746149106182
   2     -0.70580051872671
   3       1.6703940876593
   4    0.0011306055621397
   5     0.089200855736793
   6    -9.7597912162303e-16
   7    -0.014848214157768
   8      -1.1714679522426
   9    1.4359867162382e-15
  10      0.11321238935201
  11    1.2057135729458e-16
  12    1.6291917377513e-16
  13      0.14948865200857
  14    -0.0037901075632547
  15     -0.73806542029483
  16     -0.17497001577559
  17     -0.44116261461072
  18      0.44485956234067
  19    -1.0229488387885e-15
  20     -0.73806540206036
  21     -0.17497000281002
  22      0.45229615567703
  23       0.4335350895064
  24    -8.9289372265494e-17
 Sym= A
 Ene=     1.804223451
 Spin= Alpha
 Occup=    0.00000
   1    1.9231429367097e-16
   2    8.0664379341834e-16
   3    -2.0239055713363e-16
   4    5.6492394353628e-16
   5    7.5568211740462e-16
   6    -0.013238265737607
   7    1.2280631102672e-15
   8    -1.9954437090373e-15
   9     -0.56319299992089
  10    8.6505515569855e-17
  11    -0.0025241684608303
  12     -0.19914737668017
  13    2.307164853831e-16
  14    8.6926955794282e-17
  15    7.6272460233709e-17
  16    -6.8600090849874e-17
  17    -2.6112274782393e-16
  18    1.795688702873e-15
  19      0.73777031137231
  20    -2.0106519283877e-15
  21    4.7560099401143e-16
  22    2.5031064486494e-16
  23    -1.0008860780289e-15
  24      0.73777029604571
 Sym= A
 Ene=     2.051254365
 Spin= Alpha
 Occup=    0.00000
   1    -1.6599737126481e-09
   2    -9.0983269370617e-09
   3    -4.3698104783084e-09
   4    -0.019023996211686
   5    0.00024112254924251
   6    1.7186527472881e-16
   7      0.80196701662699
   8    -0.010164829302749
   9    7.3678789330205e-16
  10    7.2150567052917e-11
  11    -2.7189216062716e-16
  12    -8.2107108832251e-17
  13    0.00060728153782059
  14     0.023952200952683
  15      0.34253302919015
  16      0.07814658684082
  17      -0.4550707696256
  18      0.67128538234214
  19    -1.9098991062739e-15
  20      -0.3425330220332
  21    -0.078146583943823
  22     -0.47193875506642
  23     -0.65953564773353
  24    -4.7858048998805e-16
 Sym= A
 Ene=     2.533588606
 Spin= Alpha
 Occup=    0.00000
   1    7.2526135260032e-08
   2    3.3089380895804e-07
   3    3.2715960735429e-07
   4      0.77834053767384
   5    -0.0098656539482318
   6    -4.1792592360379e-16
   7      0.09992793056691
   8    -0.001266676385102
   9    1.6071099456467e-15
  10    1.3218137926075e-07
  11    -2.3370505883186e-16
  12    -1.2082848868404e-16
  13    0.0041620736418581
  14      0.16416067892647
  15      0.21484273099208
  16      0.29261977351232
  17      0.67535744709531
  18      0.51992271555651
  19    -8.8240480642669e-16
  20     -0.21484311580282
  21     -0.29261995634694
  22      0.66196337097823
  23     -0.53687355769681
  24    -1.1135854848074e-15
 Sym= A
 Ene=     2.578222293
 Spin= Alpha
 Occup=    0.00000
   1      0.15440179759661
   2      0.75680740621816
   3      0.64067437879402
   4    -0.007785742838203
   5     -0.61423533068548
   6    -7.1076161790036e-18
   7    -0.0024160754074117
   8     -0.19061604774028
   9    1.0965528649945e-17
  10      0.28243739140777
  11    -8.3214314440513e-17
  12    -4.4559485833333e-16
  13    -0.060445578524873
  14    0.0015324435807399
  15     -0.40878768733571
  16     -0.18179959784313
  17     -0.71341448948581
  18     -0.49098831955015
  19    -3.22114898909e-17
  20     -0.40878745462916
  21     -0.18179932270646
  22      0.70074022143372
  23      -0.5089120409878
  24    -6.902707613238e-17
 Sym= A
 Ene=     3.320254817
 Spin= Alpha
 Occup=    0.00000
   1    2.7356636948404e-16
   2    1.2358263654903e-15
   3    8.3030675187388e-16
   4    -2.2126021908533e-16
   5    -5.6646636473641e-16
   6     0.014249371459203
   7    -1.3035715761895e-16
   8    -1.2472785052091e-15
   9     -0.28934435788472
  10    -8.3468915770135e-16
  11     0.013045632045472
  12       1.0292672470721
  13    -2.8004615629784e-16
  14    1.4515784266302e-15
  15    -1.6685592849069e-15
  16    -2.7516671658391e-16
  17    -1.4344726513719e-15
  18    -3.2940478949424e-16
  19      0.40077195805285
  20    -1.0727709623554e-15
  21    3.6622182517524e-16
  22    5.2519603224319e-16
  23    -3.3983342054414e-16
  24       0.4007720906449
 Sym= A
 Ene=     3.372023075
 Spin= Alpha
 Occup=    0.00000
   1    -9.211872808076e-17
   2    -1.771708733398e-16
   3    -2.7606326979501e-16
   4    -5.1198026138465e-16
   5    -2.4565100376589e-16
   6    -1.1115018972296e-09
   7    2.1370459811651e-16
   8    5.6554248974263e-16
   9    -6.1867883902388e-08
  10    2.5354824440314e-16
  11       1.0527614946096
  12    -0.013343417078395
  13    6.6700066720461e-16
  14    1.6449023440889e-15
  15    -4.3117078054554e-16
  16    3.5321374364686e-16
  17    -5.7167883773373e-16
  18    -2.8695887961986e-16
  19      0.37452986306912
  20    6.2670682426341e-16
  21    -2.3762087505209e-16
  22    -9.6561948764104e-16
  23    -1.6133811680207e-16
  24     -0.37452969413589
 Sym= A
 Ene=      3.55815633
 Spin= Alpha
 Occup=    0.00000
   1    -0.00057643618036456
   2     0.083444899852674
   3     -0.49883363628951
   4    0.00018992181274584
   5     0.014984323088396
   6    2.2853638250897e-16
   7    0.0065857397669954
   8      0.51959140096505
   9    -2.9896083786945e-16
  10      0.37504425313998
  11    -6.1795256122402e-16
  12    7.4753947325975e-16
  13       1.0150981318525
  14    -0.025736607197117
  15      0.28994870190069
  16     0.052987219471776
  17      0.36000955555798
  18     -0.32005234742549
  19    -8.9770681716168e-18
  20      0.28994871182733
  21      0.05298722422213
  22     -0.36800583684253
  23     -0.31082482059101
  24    3.9484603434353e-16
 Sym= A
 Ene=     3.885404014
 Spin= Alpha
 Occup=    0.00000
   1     0.076428932161269
   2      0.14212701057528
   3       1.8588942497695
   4    -0.004852196845766
   5     -0.38281972195131
   6    -2.8736750628217e-16
   7    -0.011218633030384
   8      -0.8851100480268
   9    4.8163437625391e-16
  10      -1.0615652225855
  11    -1.5571489712894e-17
  12    -8.9326553611854e-16
  13      0.44317727958877
  14    -0.011236277344614
  15      -1.1283491645136
  16     -0.22122106354552
  17     -0.61395673051815
  18     -0.47857374013726
  19    -3.792887537978e-16
  20      -1.1283491762633
  21     -0.22122107472992
  22      0.60162975355126
  23     -0.49398116273542
  24    -3.7994725742955e-16
 Sym= A
 Ene=     4.225029234
 Spin= Alpha
 Occup=    0.00000
   1    6.3223256318556e-09
   2    3.8458577060785e-08
   3    1.0008694771737e-07
   4     -0.47036395160087
   5    0.0059617721790129
   6    3.1524323345562e-16
   7      -1.0779226914019
   8     0.013662483021708
   9    -3.8183302973348e-16
  10    -4.19883753025e-08
  11    -1.6347154277589e-15
  12    -1.2569399304855e-15
  13     0.033760750343164
  14       1.3315840923709
  15      -1.0299803377232
  16     -0.25060926740397
  17     -0.61298019991873
  18     -0.49482863834307
  19    -6.7189127812593e-16
  20       1.0299801848632
  21      0.25060924827134
  22     -0.60024145107022
  23      0.51020602553291
  24    7.2188648276094e-17
